benchmark/results/graph__15-1000-0.10-02_15/graph__15-1000-0.10-02_15_QuintonOs_Benders_sub.lp
\ This file has been generated by DOcplex
\ ENCODING=ISO-8859-1
\Problem name: Quinton Bounded Benders_dual_sub

Minimize
 obj: 0.000919117647 pi_nr_a0 + 0.000772797527 pi_nr_a1
      + 0.001261034048 pi_nr_a2 + 0.000871080139 pi_nr_a3
      + 0.000837520938 pi_nr_a4 + 0.001757469244 pi_nr_a5
      + 0.001098901099 pi_nr_a6 + 0.000904159132 pi_nr_a7
      + 0.002061855670 pi_nr_a8 + 0.001543209877 pi_nr_a9
      + 0.000862068966 pi_nr_a10 + 0.001438848921 pi_nr_a11
      + 0.001291989664 pi_nr_a12 + 0.000995024876 pi_nr_a13
      + 0.001312335958 pi_nr_a14 + 2 pi_p_a0_a1 + 2 pi_p_a0_a5 + pi_p_a6_a5
      + pi_p_a1_a8 + pi_p_a10_a7 + pi_p_a0_a10 + pi_p_a4_a8 + pi_p_a3_a3
      + pi_p_a9_a1 + pi_p_a6_a12 + pi_p_a14_a7 + 1311 pi_d_a0_a1_proc_0
      + 1278 pi_d_a1_a0_proc_0 + 1311 pi_d_a0_a2_proc_0 + 1278 pi_d_a2_a0_proc_0
      + 1311 pi_d_a0_a3_proc_0 + 1278 pi_d_a3_a0_proc_0 + 1311 pi_d_a0_a4_proc_0
      + 1311 pi_d_a0_a4_proc_1 + 1278 pi_d_a4_a0_proc_0 + 1278 pi_d_a4_a0_proc_1
      + 2590 pi_d_a0_a5_proc_0 + 2 pi_d_a0_a5_proc_1 + 2587 pi_d_a5_a0_proc_0
      - pi_d_a5_a0_proc_1 + 2589 pi_d_a0_a6_proc_0 + pi_d_a0_a6_proc_1
      + 2588 pi_d_a6_a0_proc_0 + 1311 pi_d_a0_a7_proc_0 + 1311 pi_d_a0_a7_proc_1
      + 1278 pi_d_a7_a0_proc_0 + 1278 pi_d_a7_a0_proc_1 + 1278 pi_d_a0_a8_proc_0
      + 1278 pi_d_a0_a8_proc_1 + 1311 pi_d_a8_a0_proc_0 + 1311 pi_d_a8_a0_proc_1
      + 2589 pi_d_a0_a9_proc_0 + pi_d_a0_a9_proc_1 + 2588 pi_d_a9_a0_proc_0
      + 1311 pi_d_a0_a10_proc_0 + 1278 pi_d_a10_a0_proc_0
      + 2589 pi_d_a0_a11_proc_0 + pi_d_a0_a11_proc_1 + 2588 pi_d_a11_a0_proc_0
      + 2589 pi_d_a0_a12_proc_0 + pi_d_a0_a12_proc_1 + 2588 pi_d_a12_a0_proc_0
      + 2589 pi_d_a0_a13_proc_0 + pi_d_a0_a13_proc_1 + 2588 pi_d_a13_a0_proc_0
      + 1311 pi_d_a0_a14_proc_0 + 1311 pi_d_a0_a14_proc_1
      + 1278 pi_d_a14_a0_proc_0 + 1278 pi_d_a14_a0_proc_1 + pi_d_a1_a2_proc_0
      + pi_d_a1_a3_proc_0 + pi_d_a4_a1_proc_0 + 1311 pi_d_a1_a5_proc_0
      + 1278 pi_d_a5_a1_proc_0 + 1311 pi_d_a1_a6_proc_0 + 1278 pi_d_a6_a1_proc_0
      + pi_d_a1_a7_proc_0 + pi_d_a1_a8_proc_0 + 1311 pi_d_a1_a9_proc_0
      + 1278 pi_d_a9_a1_proc_0 + pi_d_a1_a10_proc_0 + 1311 pi_d_a1_a11_proc_0
      + 1278 pi_d_a11_a1_proc_0 + 1311 pi_d_a1_a12_proc_0
      + 1278 pi_d_a12_a1_proc_0 + 1311 pi_d_a1_a13_proc_0
      + 1278 pi_d_a13_a1_proc_0 + pi_d_a14_a1_proc_0 + pi_d_a2_a3_proc_0
      + pi_d_a4_a2_proc_0 + 1311 pi_d_a2_a5_proc_0 + 1278 pi_d_a5_a2_proc_0
      + 1311 pi_d_a2_a6_proc_0 + 1278 pi_d_a6_a2_proc_0 + pi_d_a2_a7_proc_0
      + pi_d_a2_a8_proc_0 + 1311 pi_d_a2_a9_proc_0 + 1278 pi_d_a9_a2_proc_0
      + pi_d_a10_a2_proc_0 + 1311 pi_d_a2_a11_proc_0 + 1278 pi_d_a11_a2_proc_0
      + 1311 pi_d_a2_a12_proc_0 + 1278 pi_d_a12_a2_proc_0
      + 1311 pi_d_a2_a13_proc_0 + 1278 pi_d_a13_a2_proc_0 + pi_d_a14_a2_proc_0
      + pi_d_a4_a3_proc_0 + 1311 pi_d_a3_a5_proc_0 + 1278 pi_d_a5_a3_proc_0
      + 1278 pi_d_a3_a6_proc_0 + 1311 pi_d_a6_a3_proc_0 + pi_d_a3_a7_proc_0
      + pi_d_a3_a8_proc_0 + 1311 pi_d_a3_a9_proc_0 + 1278 pi_d_a9_a3_proc_0
      + pi_d_a10_a3_proc_0 + 1311 pi_d_a3_a11_proc_0 + 1278 pi_d_a11_a3_proc_0
      + 1311 pi_d_a3_a12_proc_0 + 1278 pi_d_a12_a3_proc_0
      + 1311 pi_d_a3_a13_proc_0 + 1278 pi_d_a13_a3_proc_0 + pi_d_a14_a3_proc_0
      + 1278 pi_d_a4_a5_proc_0 + 1278 pi_d_a4_a5_proc_1 + 1311 pi_d_a5_a4_proc_0
      + 1311 pi_d_a5_a4_proc_1 + 1311 pi_d_a4_a6_proc_0 + 1311 pi_d_a4_a6_proc_1
      + 1278 pi_d_a6_a4_proc_0 + 1278 pi_d_a6_a4_proc_1 + pi_d_a4_a7_proc_0
      + 2589 pi_d_a4_a7_proc_1 + 2588 pi_d_a7_a4_proc_1 + pi_d_a4_a8_proc_0
      + 2589 pi_d_a4_a8_proc_1 + 2588 pi_d_a8_a4_proc_1 + 1311 pi_d_a4_a9_proc_0
      + 1311 pi_d_a4_a9_proc_1 + 1278 pi_d_a9_a4_proc_0 + 1278 pi_d_a9_a4_proc_1
      + pi_d_a4_a10_proc_0 + 1311 pi_d_a4_a11_proc_0 + 1311 pi_d_a4_a11_proc_1
      + 1278 pi_d_a11_a4_proc_0 + 1278 pi_d_a11_a4_proc_1
      + 1311 pi_d_a4_a12_proc_0 + 1311 pi_d_a4_a12_proc_1
      + 1278 pi_d_a12_a4_proc_0 + 1278 pi_d_a12_a4_proc_1
      + 1311 pi_d_a4_a13_proc_0 + 1311 pi_d_a4_a13_proc_1
      + 1278 pi_d_a13_a4_proc_0 + 1278 pi_d_a13_a4_proc_1 + pi_d_a4_a14_proc_0
      + 2589 pi_d_a4_a14_proc_1 + 2588 pi_d_a14_a4_proc_1
      + 2588 pi_d_a5_a6_proc_0 + 2589 pi_d_a6_a5_proc_0 + pi_d_a6_a5_proc_1
      + 1311 pi_d_a5_a7_proc_0 + 1311 pi_d_a5_a7_proc_1 + 1278 pi_d_a7_a5_proc_0
      + 1278 pi_d_a7_a5_proc_1 + 1311 pi_d_a5_a8_proc_0 + 1311 pi_d_a5_a8_proc_1
      + 1278 pi_d_a8_a5_proc_0 + 1278 pi_d_a8_a5_proc_1 + 2588 pi_d_a5_a9_proc_0
      + 2589 pi_d_a9_a5_proc_0 + pi_d_a9_a5_proc_1 + 1311 pi_d_a5_a10_proc_0
      + 1278 pi_d_a10_a5_proc_0 + 2588 pi_d_a5_a11_proc_0
      + 2589 pi_d_a11_a5_proc_0 + pi_d_a11_a5_proc_1 + 2588 pi_d_a5_a12_proc_0
      + 2589 pi_d_a12_a5_proc_0 + pi_d_a12_a5_proc_1 + 2588 pi_d_a5_a13_proc_0
      + 2589 pi_d_a13_a5_proc_0 + pi_d_a13_a5_proc_1 + 1311 pi_d_a5_a14_proc_0
      + 1311 pi_d_a5_a14_proc_1 + 1278 pi_d_a14_a5_proc_0
      + 1278 pi_d_a14_a5_proc_1 + 1311 pi_d_a6_a7_proc_0
      + 1311 pi_d_a6_a7_proc_1 + 1278 pi_d_a7_a6_proc_0 + 1278 pi_d_a7_a6_proc_1
      + 1311 pi_d_a6_a8_proc_0 + 1311 pi_d_a6_a8_proc_1 + 1278 pi_d_a8_a6_proc_0
      + 1278 pi_d_a8_a6_proc_1 + 2589 pi_d_a6_a9_proc_0 + pi_d_a6_a9_proc_1
      + 2588 pi_d_a9_a6_proc_0 + 1311 pi_d_a6_a10_proc_0
      + 1278 pi_d_a10_a6_proc_0 + 2589 pi_d_a6_a11_proc_0 + pi_d_a6_a11_proc_1
      + 2588 pi_d_a11_a6_proc_0 + 2589 pi_d_a6_a12_proc_0 + pi_d_a6_a12_proc_1
      + 2588 pi_d_a12_a6_proc_0 + 2589 pi_d_a6_a13_proc_0 + pi_d_a6_a13_proc_1
      + 2588 pi_d_a13_a6_proc_0 + 1311 pi_d_a6_a14_proc_0
      + 1311 pi_d_a6_a14_proc_1 + 1278 pi_d_a14_a6_proc_0
      + 1278 pi_d_a14_a6_proc_1 + pi_d_a7_a8_proc_0 + 2589 pi_d_a7_a8_proc_1
      + 2588 pi_d_a8_a7_proc_1 + 1311 pi_d_a7_a9_proc_0 + 1311 pi_d_a7_a9_proc_1
      + 1278 pi_d_a9_a7_proc_0 + 1278 pi_d_a9_a7_proc_1 + pi_d_a10_a7_proc_0
      + 1311 pi_d_a7_a11_proc_0 + 1311 pi_d_a7_a11_proc_1
      + 1278 pi_d_a11_a7_proc_0 + 1278 pi_d_a11_a7_proc_1
      + 1311 pi_d_a7_a12_proc_0 + 1311 pi_d_a7_a12_proc_1
      + 1278 pi_d_a12_a7_proc_0 + 1278 pi_d_a12_a7_proc_1
      + 1311 pi_d_a7_a13_proc_0 + 1311 pi_d_a7_a13_proc_1
      + 1278 pi_d_a13_a7_proc_0 + 1278 pi_d_a13_a7_proc_1
      + 2588 pi_d_a7_a14_proc_1 + pi_d_a14_a7_proc_0 + 2589 pi_d_a14_a7_proc_1
      + 1311 pi_d_a8_a9_proc_0 + 1311 pi_d_a8_a9_proc_1 + 1278 pi_d_a9_a8_proc_0
      + 1278 pi_d_a9_a8_proc_1 + pi_d_a10_a8_proc_0 + 1311 pi_d_a8_a11_proc_0
      + 1311 pi_d_a8_a11_proc_1 + 1278 pi_d_a11_a8_proc_0
      + 1278 pi_d_a11_a8_proc_1 + 1311 pi_d_a8_a12_proc_0
      + 1311 pi_d_a8_a12_proc_1 + 1278 pi_d_a12_a8_proc_0
      + 1278 pi_d_a12_a8_proc_1 + 1311 pi_d_a8_a13_proc_0
      + 1311 pi_d_a8_a13_proc_1 + 1278 pi_d_a13_a8_proc_0
      + 1278 pi_d_a13_a8_proc_1 + 2588 pi_d_a8_a14_proc_1 + pi_d_a14_a8_proc_0
      + 2589 pi_d_a14_a8_proc_1 + 1311 pi_d_a9_a10_proc_0
      + 1278 pi_d_a10_a9_proc_0 + 2589 pi_d_a9_a11_proc_0 + pi_d_a9_a11_proc_1
      + 2588 pi_d_a11_a9_proc_0 + 2589 pi_d_a9_a12_proc_0 + pi_d_a9_a12_proc_1
      + 2588 pi_d_a12_a9_proc_0 + 2589 pi_d_a9_a13_proc_0 + pi_d_a9_a13_proc_1
      + 2588 pi_d_a13_a9_proc_0 + 1311 pi_d_a9_a14_proc_0
      + 1311 pi_d_a9_a14_proc_1 + 1278 pi_d_a14_a9_proc_0
      + 1278 pi_d_a14_a9_proc_1 + 1311 pi_d_a10_a11_proc_0
      + 1278 pi_d_a11_a10_proc_0 + 1311 pi_d_a10_a12_proc_0
      + 1278 pi_d_a12_a10_proc_0 + 1311 pi_d_a10_a13_proc_0
      + 1278 pi_d_a13_a10_proc_0 + pi_d_a14_a10_proc_0
      + 2589 pi_d_a11_a12_proc_0 + pi_d_a11_a12_proc_1
      + 2588 pi_d_a12_a11_proc_0 + 2588 pi_d_a11_a13_proc_0
      + 2589 pi_d_a13_a11_proc_0 + pi_d_a13_a11_proc_1
      + 1311 pi_d_a11_a14_proc_0 + 1311 pi_d_a11_a14_proc_1
      + 1278 pi_d_a14_a11_proc_0 + 1278 pi_d_a14_a11_proc_1
      + 2588 pi_d_a12_a13_proc_0 + 2589 pi_d_a13_a12_proc_0
      + pi_d_a13_a12_proc_1 + 1311 pi_d_a12_a14_proc_0
      + 1311 pi_d_a12_a14_proc_1 + 1278 pi_d_a14_a12_proc_0
      + 1278 pi_d_a14_a12_proc_1 + 1311 pi_d_a13_a14_proc_0
      + 1311 pi_d_a13_a14_proc_1 + 1278 pi_d_a14_a13_proc_0
      + 1278 pi_d_a14_a13_proc_1 + pi_y2_a0_proc_1 + pi_y2_a1_proc_0
      + pi_y2_a2_proc_0 + pi_y2_a3_proc_0 + pi_y2_a4_proc_0 + pi_y2_a5_proc_1
      + pi_y2_a6_proc_1 + pi_y2_a7_proc_0 + pi_y2_a8_proc_0 + pi_y2_a9_proc_1
      + pi_y2_a10_proc_0 + pi_y2_a11_proc_1 + pi_y2_a12_proc_1
      + pi_y2_a13_proc_1 + pi_y2_a14_proc_0
Subject To
 c1: pi_nr_a0 + pi_nr_a1 + pi_nr_a2 + pi_nr_a3 + pi_nr_a4 + pi_nr_a5 + pi_nr_a6
     + pi_nr_a7 + pi_nr_a8 + pi_nr_a9 + pi_nr_a10 + pi_nr_a11 + pi_nr_a12
     + pi_nr_a13 + pi_nr_a14 - pi_y1_a0 - pi_y1_a1 - pi_y1_a2 - pi_y1_a3
     - pi_y1_a4 - pi_y1_a5 - pi_y1_a6 - pi_y1_a7 - pi_y1_a8 - pi_y1_a9
     - pi_y1_a10 - pi_y1_a11 - pi_y1_a12 - pi_y1_a13 - pi_y1_a14 >= 1
 c2: pi_p_a0_a1 + pi_p_a0_a5 + pi_p_a0_a10 - pi_p_a4_a0 - pi_p_a6_a0
     + pi_d_a0_a1_proc_0 - pi_d_a1_a0_proc_0 + pi_d_a0_a2_proc_0
     - pi_d_a2_a0_proc_0 + pi_d_a0_a3_proc_0 - pi_d_a3_a0_proc_0
     + pi_d_a0_a4_proc_0 + pi_d_a0_a4_proc_1 - pi_d_a4_a0_proc_0
     - pi_d_a4_a0_proc_1 + pi_d_a0_a5_proc_0 + pi_d_a0_a5_proc_1
     - pi_d_a5_a0_proc_0 - pi_d_a5_a0_proc_1 + pi_d_a0_a6_proc_0
     + pi_d_a0_a6_proc_1 - pi_d_a6_a0_proc_0 - pi_d_a6_a0_proc_1
     + pi_d_a0_a7_proc_0 + pi_d_a0_a7_proc_1 - pi_d_a7_a0_proc_0
     - pi_d_a7_a0_proc_1 + pi_d_a0_a8_proc_0 + pi_d_a0_a8_proc_1
     - pi_d_a8_a0_proc_0 - pi_d_a8_a0_proc_1 + pi_d_a0_a9_proc_0
     + pi_d_a0_a9_proc_1 - pi_d_a9_a0_proc_0 - pi_d_a9_a0_proc_1
     + pi_d_a0_a10_proc_0 - pi_d_a10_a0_proc_0 + pi_d_a0_a11_proc_0
     + pi_d_a0_a11_proc_1 - pi_d_a11_a0_proc_0 - pi_d_a11_a0_proc_1
     + pi_d_a0_a12_proc_0 + pi_d_a0_a12_proc_1 - pi_d_a12_a0_proc_0
     - pi_d_a12_a0_proc_1 + pi_d_a0_a13_proc_0 + pi_d_a0_a13_proc_1
     - pi_d_a13_a0_proc_0 - pi_d_a13_a0_proc_1 + pi_d_a0_a14_proc_0
     + pi_d_a0_a14_proc_1 - pi_d_a14_a0_proc_0 - pi_d_a14_a0_proc_1 >= 0
 c3: 1272 pi_p_a0_a1 + 1272 pi_p_a0_a5 + 1272 pi_p_a0_a10
     + 1272 pi_d_a0_a1_proc_0 + 1272 pi_d_a0_a2_proc_0 + 1272 pi_d_a0_a3_proc_0
     + 1272 pi_d_a0_a4_proc_0 + 1272 pi_d_a0_a5_proc_0 + 1272 pi_d_a0_a6_proc_0
     + 1272 pi_d_a0_a7_proc_0 + 1272 pi_d_a0_a8_proc_0 + 1272 pi_d_a0_a9_proc_0
     + 1272 pi_d_a0_a10_proc_0 + 1272 pi_d_a0_a11_proc_0
     + 1272 pi_d_a0_a12_proc_0 + 1272 pi_d_a0_a13_proc_0
     + 1272 pi_d_a0_a14_proc_0 + pi_y1_a0 + pi_y2_a0_proc_0 >= 0
 c4: 1088 pi_p_a0_a1 + 1088 pi_p_a0_a5 + 1088 pi_p_a0_a10
     + 1088 pi_d_a0_a4_proc_1 + 1088 pi_d_a0_a5_proc_1 + 1088 pi_d_a0_a6_proc_1
     + 1088 pi_d_a0_a7_proc_1 + 1088 pi_d_a0_a8_proc_1 + 1088 pi_d_a0_a9_proc_1
     + 1088 pi_d_a0_a11_proc_1 + 1088 pi_d_a0_a12_proc_1
     + 1088 pi_d_a0_a13_proc_1 + 1088 pi_d_a0_a14_proc_1 + pi_y1_a0
     + pi_y2_a0_proc_1 >= 0
 c5: - pi_p_a0_a1 - pi_p_a2_a1 + pi_p_a1_a8 + pi_p_a1_a9 + pi_p_a1_a6
     - pi_p_a9_a1 - pi_d_a0_a1_proc_0 + pi_d_a1_a0_proc_0 + pi_d_a1_a2_proc_0
     - pi_d_a2_a1_proc_0 + pi_d_a1_a3_proc_0 - pi_d_a3_a1_proc_0
     + pi_d_a1_a4_proc_0 - pi_d_a4_a1_proc_0 + pi_d_a1_a5_proc_0
     - pi_d_a5_a1_proc_0 + pi_d_a1_a6_proc_0 - pi_d_a6_a1_proc_0
     + pi_d_a1_a7_proc_0 - pi_d_a7_a1_proc_0 + pi_d_a1_a8_proc_0
     - pi_d_a8_a1_proc_0 + pi_d_a1_a9_proc_0 - pi_d_a9_a1_proc_0
     + pi_d_a1_a10_proc_0 - pi_d_a10_a1_proc_0 + pi_d_a1_a11_proc_0
     - pi_d_a11_a1_proc_0 + pi_d_a1_a12_proc_0 - pi_d_a12_a1_proc_0
     + pi_d_a1_a13_proc_0 - pi_d_a13_a1_proc_0 + pi_d_a1_a14_proc_0
     - pi_d_a14_a1_proc_0 >= 0
 c6: 1294 pi_p_a1_a8 + 1294 pi_p_a1_a9 + 1294 pi_p_a1_a6
     + 1294 pi_d_a1_a0_proc_0 + 1294 pi_d_a1_a2_proc_0 + 1294 pi_d_a1_a3_proc_0
     + 1294 pi_d_a1_a4_proc_0 + 1294 pi_d_a1_a5_proc_0 + 1294 pi_d_a1_a6_proc_0
     + 1294 pi_d_a1_a7_proc_0 + 1294 pi_d_a1_a8_proc_0 + 1294 pi_d_a1_a9_proc_0
     + 1294 pi_d_a1_a10_proc_0 + 1294 pi_d_a1_a11_proc_0
     + 1294 pi_d_a1_a12_proc_0 + 1294 pi_d_a1_a13_proc_0
     + 1294 pi_d_a1_a14_proc_0 + pi_y1_a1 + pi_y2_a1_proc_0 >= 0
 c7: pi_p_a2_a1 - pi_p_a3_a2 + pi_p_a2_a12 + pi_p_a2_a10 - pi_d_a0_a2_proc_0
     + pi_d_a2_a0_proc_0 - pi_d_a1_a2_proc_0 + pi_d_a2_a1_proc_0
     + pi_d_a2_a3_proc_0 - pi_d_a3_a2_proc_0 + pi_d_a2_a4_proc_0
     - pi_d_a4_a2_proc_0 + pi_d_a2_a5_proc_0 - pi_d_a5_a2_proc_0
     + pi_d_a2_a6_proc_0 - pi_d_a6_a2_proc_0 + pi_d_a2_a7_proc_0
     - pi_d_a7_a2_proc_0 + pi_d_a2_a8_proc_0 - pi_d_a8_a2_proc_0
     + pi_d_a2_a9_proc_0 - pi_d_a9_a2_proc_0 + pi_d_a2_a10_proc_0
     - pi_d_a10_a2_proc_0 + pi_d_a2_a11_proc_0 - pi_d_a11_a2_proc_0
     + pi_d_a2_a12_proc_0 - pi_d_a12_a2_proc_0 + pi_d_a2_a13_proc_0
     - pi_d_a13_a2_proc_0 + pi_d_a2_a14_proc_0 - pi_d_a14_a2_proc_0 >= 0
 c8: 793 pi_p_a2_a1 + 793 pi_p_a2_a12 + 793 pi_p_a2_a10 + 793 pi_d_a2_a0_proc_0
     + 793 pi_d_a2_a1_proc_0 + 793 pi_d_a2_a3_proc_0 + 793 pi_d_a2_a4_proc_0
     + 793 pi_d_a2_a5_proc_0 + 793 pi_d_a2_a6_proc_0 + 793 pi_d_a2_a7_proc_0
     + 793 pi_d_a2_a8_proc_0 + 793 pi_d_a2_a9_proc_0 + 793 pi_d_a2_a10_proc_0
     + 793 pi_d_a2_a11_proc_0 + 793 pi_d_a2_a12_proc_0 + 793 pi_d_a2_a13_proc_0
     + 793 pi_d_a2_a14_proc_0 + pi_y1_a2 + pi_y2_a2_proc_0 >= 0
 c9: pi_p_a3_a2 + pi_p_a3_a4 - pi_p_a7_a3 - pi_d_a0_a3_proc_0
     + pi_d_a3_a0_proc_0 - pi_d_a1_a3_proc_0 + pi_d_a3_a1_proc_0
     - pi_d_a2_a3_proc_0 + pi_d_a3_a2_proc_0 + pi_d_a3_a4_proc_0
     - pi_d_a4_a3_proc_0 + pi_d_a3_a5_proc_0 - pi_d_a5_a3_proc_0
     + pi_d_a3_a6_proc_0 - pi_d_a6_a3_proc_0 + pi_d_a3_a7_proc_0
     - pi_d_a7_a3_proc_0 + pi_d_a3_a8_proc_0 - pi_d_a8_a3_proc_0
     + pi_d_a3_a9_proc_0 - pi_d_a9_a3_proc_0 + pi_d_a3_a10_proc_0
     - pi_d_a10_a3_proc_0 + pi_d_a3_a11_proc_0 - pi_d_a11_a3_proc_0
     + pi_d_a3_a12_proc_0 - pi_d_a12_a3_proc_0 + pi_d_a3_a13_proc_0
     - pi_d_a13_a3_proc_0 + pi_d_a3_a14_proc_0 - pi_d_a14_a3_proc_0 >= 0
 c10: 1148 pi_p_a3_a2 + 1148 pi_p_a3_a4 + 1148 pi_p_a3_a3
      + 1148 pi_d_a3_a0_proc_0 + 1148 pi_d_a3_a1_proc_0 + 1148 pi_d_a3_a2_proc_0
      + 1148 pi_d_a3_a4_proc_0 + 1148 pi_d_a3_a5_proc_0 + 1148 pi_d_a3_a6_proc_0
      + 1148 pi_d_a3_a7_proc_0 + 1148 pi_d_a3_a8_proc_0 + 1148 pi_d_a3_a9_proc_0
      + 1148 pi_d_a3_a10_proc_0 + 1148 pi_d_a3_a11_proc_0
      + 1148 pi_d_a3_a12_proc_0 + 1148 pi_d_a3_a13_proc_0
      + 1148 pi_d_a3_a14_proc_0 + pi_y1_a3 + pi_y2_a3_proc_0 >= 0
 c11: - pi_p_a3_a4 + pi_p_a4_a8 + pi_p_a4_a0 - pi_d_a0_a4_proc_0
      - pi_d_a0_a4_proc_1 + pi_d_a4_a0_proc_0 + pi_d_a4_a0_proc_1
      - pi_d_a1_a4_proc_0 + pi_d_a4_a1_proc_0 - pi_d_a2_a4_proc_0
      + pi_d_a4_a2_proc_0 - pi_d_a3_a4_proc_0 + pi_d_a4_a3_proc_0
      + pi_d_a4_a5_proc_0 + pi_d_a4_a5_proc_1 - pi_d_a5_a4_proc_0
      - pi_d_a5_a4_proc_1 + pi_d_a4_a6_proc_0 + pi_d_a4_a6_proc_1
      - pi_d_a6_a4_proc_0 - pi_d_a6_a4_proc_1 + pi_d_a4_a7_proc_0
      + pi_d_a4_a7_proc_1 - pi_d_a7_a4_proc_0 - pi_d_a7_a4_proc_1
      + pi_d_a4_a8_proc_0 + pi_d_a4_a8_proc_1 - pi_d_a8_a4_proc_0
      - pi_d_a8_a4_proc_1 + pi_d_a4_a9_proc_0 + pi_d_a4_a9_proc_1
      - pi_d_a9_a4_proc_0 - pi_d_a9_a4_proc_1 + pi_d_a4_a10_proc_0
      - pi_d_a10_a4_proc_0 + pi_d_a4_a11_proc_0 + pi_d_a4_a11_proc_1
      - pi_d_a11_a4_proc_0 - pi_d_a11_a4_proc_1 + pi_d_a4_a12_proc_0
      + pi_d_a4_a12_proc_1 - pi_d_a12_a4_proc_0 - pi_d_a12_a4_proc_1
      + pi_d_a4_a13_proc_0 + pi_d_a4_a13_proc_1 - pi_d_a13_a4_proc_0
      - pi_d_a13_a4_proc_1 + pi_d_a4_a14_proc_0 + pi_d_a4_a14_proc_1
      - pi_d_a14_a4_proc_0 - pi_d_a14_a4_proc_1 >= 0
 c12: 1194 pi_p_a4_a8 + 1194 pi_p_a4_a0 + 1194 pi_d_a4_a0_proc_0
      + 1194 pi_d_a4_a1_proc_0 + 1194 pi_d_a4_a2_proc_0 + 1194 pi_d_a4_a3_proc_0
      + 1194 pi_d_a4_a5_proc_0 + 1194 pi_d_a4_a6_proc_0 + 1194 pi_d_a4_a7_proc_0
      + 1194 pi_d_a4_a8_proc_0 + 1194 pi_d_a4_a9_proc_0
      + 1194 pi_d_a4_a10_proc_0 + 1194 pi_d_a4_a11_proc_0
      + 1194 pi_d_a4_a12_proc_0 + 1194 pi_d_a4_a13_proc_0
      + 1194 pi_d_a4_a14_proc_0 + pi_y1_a4 + pi_y2_a4_proc_0 >= 0
 c13: 844 pi_p_a4_a8 + 844 pi_p_a4_a0 + 844 pi_d_a4_a0_proc_1
      + 844 pi_d_a4_a5_proc_1 + 844 pi_d_a4_a6_proc_1 + 844 pi_d_a4_a7_proc_1
      + 844 pi_d_a4_a8_proc_1 + 844 pi_d_a4_a9_proc_1 + 844 pi_d_a4_a11_proc_1
      + 844 pi_d_a4_a12_proc_1 + 844 pi_d_a4_a13_proc_1 + 844 pi_d_a4_a14_proc_1
      + pi_y1_a4 + pi_y2_a4_proc_1 >= 0
 c14: - pi_p_a0_a5 - pi_p_a6_a5 + pi_p_a5_a10 + pi_p_a5_a11 + pi_p_a5_a8
      - pi_d_a0_a5_proc_0 - pi_d_a0_a5_proc_1 + pi_d_a5_a0_proc_0
      + pi_d_a5_a0_proc_1 - pi_d_a1_a5_proc_0 + pi_d_a5_a1_proc_0
      - pi_d_a2_a5_proc_0 + pi_d_a5_a2_proc_0 - pi_d_a3_a5_proc_0
      + pi_d_a5_a3_proc_0 - pi_d_a4_a5_proc_0 - pi_d_a4_a5_proc_1
      + pi_d_a5_a4_proc_0 + pi_d_a5_a4_proc_1 + pi_d_a5_a6_proc_0
      + pi_d_a5_a6_proc_1 - pi_d_a6_a5_proc_0 - pi_d_a6_a5_proc_1
      + pi_d_a5_a7_proc_0 + pi_d_a5_a7_proc_1 - pi_d_a7_a5_proc_0
      - pi_d_a7_a5_proc_1 + pi_d_a5_a8_proc_0 + pi_d_a5_a8_proc_1
      - pi_d_a8_a5_proc_0 - pi_d_a8_a5_proc_1 + pi_d_a5_a9_proc_0
      + pi_d_a5_a9_proc_1 - pi_d_a9_a5_proc_0 - pi_d_a9_a5_proc_1
      + pi_d_a5_a10_proc_0 - pi_d_a10_a5_proc_0 + pi_d_a5_a11_proc_0
      + pi_d_a5_a11_proc_1 - pi_d_a11_a5_proc_0 - pi_d_a11_a5_proc_1
      + pi_d_a5_a12_proc_0 + pi_d_a5_a12_proc_1 - pi_d_a12_a5_proc_0
      - pi_d_a12_a5_proc_1 + pi_d_a5_a13_proc_0 + pi_d_a5_a13_proc_1
      - pi_d_a13_a5_proc_0 - pi_d_a13_a5_proc_1 + pi_d_a5_a14_proc_0
      + pi_d_a5_a14_proc_1 - pi_d_a14_a5_proc_0 - pi_d_a14_a5_proc_1 >= 0
 c15: 1093 pi_p_a5_a10 + 1093 pi_p_a5_a11 + 1093 pi_p_a5_a8
      + 1093 pi_d_a5_a0_proc_0 + 1093 pi_d_a5_a1_proc_0 + 1093 pi_d_a5_a2_proc_0
      + 1093 pi_d_a5_a3_proc_0 + 1093 pi_d_a5_a4_proc_0 + 1093 pi_d_a5_a6_proc_0
      + 1093 pi_d_a5_a7_proc_0 + 1093 pi_d_a5_a8_proc_0 + 1093 pi_d_a5_a9_proc_0
      + 1093 pi_d_a5_a10_proc_0 + 1093 pi_d_a5_a11_proc_0
      + 1093 pi_d_a5_a12_proc_0 + 1093 pi_d_a5_a13_proc_0
      + 1093 pi_d_a5_a14_proc_0 + pi_y1_a5 + pi_y2_a5_proc_0 >= 0
 c16: 569 pi_p_a5_a10 + 569 pi_p_a5_a11 + 569 pi_p_a5_a8 + 569 pi_d_a5_a0_proc_1
      + 569 pi_d_a5_a4_proc_1 + 569 pi_d_a5_a6_proc_1 + 569 pi_d_a5_a7_proc_1
      + 569 pi_d_a5_a8_proc_1 + 569 pi_d_a5_a9_proc_1 + 569 pi_d_a5_a11_proc_1
      + 569 pi_d_a5_a12_proc_1 + 569 pi_d_a5_a13_proc_1 + 569 pi_d_a5_a14_proc_1
      + pi_y1_a5 + pi_y2_a5_proc_1 >= 0
 c17: pi_p_a6_a5 - pi_p_a1_a6 + pi_p_a6_a0 + pi_p_a6_a12 - pi_p_a9_a6
      - pi_p_a10_a6 - pi_d_a0_a6_proc_0 - pi_d_a0_a6_proc_1 + pi_d_a6_a0_proc_0
      + pi_d_a6_a0_proc_1 - pi_d_a1_a6_proc_0 + pi_d_a6_a1_proc_0
      - pi_d_a2_a6_proc_0 + pi_d_a6_a2_proc_0 - pi_d_a3_a6_proc_0
      + pi_d_a6_a3_proc_0 - pi_d_a4_a6_proc_0 - pi_d_a4_a6_proc_1
      + pi_d_a6_a4_proc_0 + pi_d_a6_a4_proc_1 - pi_d_a5_a6_proc_0
      - pi_d_a5_a6_proc_1 + pi_d_a6_a5_proc_0 + pi_d_a6_a5_proc_1
      + pi_d_a6_a7_proc_0 + pi_d_a6_a7_proc_1 - pi_d_a7_a6_proc_0
      - pi_d_a7_a6_proc_1 + pi_d_a6_a8_proc_0 + pi_d_a6_a8_proc_1
      - pi_d_a8_a6_proc_0 - pi_d_a8_a6_proc_1 + pi_d_a6_a9_proc_0
      + pi_d_a6_a9_proc_1 - pi_d_a9_a6_proc_0 - pi_d_a9_a6_proc_1
      + pi_d_a6_a10_proc_0 - pi_d_a10_a6_proc_0 + pi_d_a6_a11_proc_0
      + pi_d_a6_a11_proc_1 - pi_d_a11_a6_proc_0 - pi_d_a11_a6_proc_1
      + pi_d_a6_a12_proc_0 + pi_d_a6_a12_proc_1 - pi_d_a12_a6_proc_0
      - pi_d_a12_a6_proc_1 + pi_d_a6_a13_proc_0 + pi_d_a6_a13_proc_1
      - pi_d_a13_a6_proc_0 - pi_d_a13_a6_proc_1 + pi_d_a6_a14_proc_0
      + pi_d_a6_a14_proc_1 - pi_d_a14_a6_proc_0 - pi_d_a14_a6_proc_1 >= 0
 c18: 837 pi_p_a6_a5 + 837 pi_p_a6_a0 + 837 pi_p_a6_a12 + 837 pi_d_a6_a0_proc_0
      + 837 pi_d_a6_a1_proc_0 + 837 pi_d_a6_a2_proc_0 + 837 pi_d_a6_a3_proc_0
      + 837 pi_d_a6_a4_proc_0 + 837 pi_d_a6_a5_proc_0 + 837 pi_d_a6_a7_proc_0
      + 837 pi_d_a6_a8_proc_0 + 837 pi_d_a6_a9_proc_0 + 837 pi_d_a6_a10_proc_0
      + 837 pi_d_a6_a11_proc_0 + 837 pi_d_a6_a12_proc_0 + 837 pi_d_a6_a13_proc_0
      + 837 pi_d_a6_a14_proc_0 + pi_y1_a6 + pi_y2_a6_proc_0 >= 0
 c19: 910 pi_p_a6_a5 + 910 pi_p_a6_a0 + 910 pi_p_a6_a12 + 910 pi_d_a6_a0_proc_1
      + 910 pi_d_a6_a4_proc_1 + 910 pi_d_a6_a5_proc_1 + 910 pi_d_a6_a7_proc_1
      + 910 pi_d_a6_a8_proc_1 + 910 pi_d_a6_a9_proc_1 + 910 pi_d_a6_a11_proc_1
      + 910 pi_d_a6_a12_proc_1 + 910 pi_d_a6_a13_proc_1 + 910 pi_d_a6_a14_proc_1
      + pi_y1_a6 + pi_y2_a6_proc_1 >= 0
 c20: pi_p_a7_a3 - pi_p_a10_a7 - pi_p_a8_a7 - pi_p_a14_a7 - pi_d_a0_a7_proc_0
      - pi_d_a0_a7_proc_1 + pi_d_a7_a0_proc_0 + pi_d_a7_a0_proc_1
      - pi_d_a1_a7_proc_0 + pi_d_a7_a1_proc_0 - pi_d_a2_a7_proc_0
      + pi_d_a7_a2_proc_0 - pi_d_a3_a7_proc_0 + pi_d_a7_a3_proc_0
      - pi_d_a4_a7_proc_0 - pi_d_a4_a7_proc_1 + pi_d_a7_a4_proc_0
      + pi_d_a7_a4_proc_1 - pi_d_a5_a7_proc_0 - pi_d_a5_a7_proc_1
      + pi_d_a7_a5_proc_0 + pi_d_a7_a5_proc_1 - pi_d_a6_a7_proc_0
      - pi_d_a6_a7_proc_1 + pi_d_a7_a6_proc_0 + pi_d_a7_a6_proc_1
      + pi_d_a7_a8_proc_0 + pi_d_a7_a8_proc_1 - pi_d_a8_a7_proc_0
      - pi_d_a8_a7_proc_1 + pi_d_a7_a9_proc_0 + pi_d_a7_a9_proc_1
      - pi_d_a9_a7_proc_0 - pi_d_a9_a7_proc_1 + pi_d_a7_a10_proc_0
      - pi_d_a10_a7_proc_0 + pi_d_a7_a11_proc_0 + pi_d_a7_a11_proc_1
      - pi_d_a11_a7_proc_0 - pi_d_a11_a7_proc_1 + pi_d_a7_a12_proc_0
      + pi_d_a7_a12_proc_1 - pi_d_a12_a7_proc_0 - pi_d_a12_a7_proc_1
      + pi_d_a7_a13_proc_0 + pi_d_a7_a13_proc_1 - pi_d_a13_a7_proc_0
      - pi_d_a13_a7_proc_1 + pi_d_a7_a14_proc_0 + pi_d_a7_a14_proc_1
      - pi_d_a14_a7_proc_0 - pi_d_a14_a7_proc_1 >= 0
 c21: 1106 pi_p_a7_a3 + 1106 pi_d_a7_a0_proc_0 + 1106 pi_d_a7_a1_proc_0
      + 1106 pi_d_a7_a2_proc_0 + 1106 pi_d_a7_a3_proc_0 + 1106 pi_d_a7_a4_proc_0
      + 1106 pi_d_a7_a5_proc_0 + 1106 pi_d_a7_a6_proc_0 + 1106 pi_d_a7_a8_proc_0
      + 1106 pi_d_a7_a9_proc_0 + 1106 pi_d_a7_a10_proc_0
      + 1106 pi_d_a7_a11_proc_0 + 1106 pi_d_a7_a12_proc_0
      + 1106 pi_d_a7_a13_proc_0 + 1106 pi_d_a7_a14_proc_0 + pi_y1_a7
      + pi_y2_a7_proc_0 >= 0
 c22: 1222 pi_p_a7_a3 + 1222 pi_d_a7_a0_proc_1 + 1222 pi_d_a7_a4_proc_1
      + 1222 pi_d_a7_a5_proc_1 + 1222 pi_d_a7_a6_proc_1 + 1222 pi_d_a7_a8_proc_1
      + 1222 pi_d_a7_a9_proc_1 + 1222 pi_d_a7_a11_proc_1
      + 1222 pi_d_a7_a12_proc_1 + 1222 pi_d_a7_a13_proc_1
      + 1222 pi_d_a7_a14_proc_1 + pi_y1_a7 + pi_y2_a7_proc_1 >= 0
 c23: - pi_p_a1_a8 + pi_p_a8_a12 + pi_p_a8_a7 - pi_p_a4_a8 - pi_p_a5_a8
      - pi_d_a0_a8_proc_0 - pi_d_a0_a8_proc_1 + pi_d_a8_a0_proc_0
      + pi_d_a8_a0_proc_1 - pi_d_a1_a8_proc_0 + pi_d_a8_a1_proc_0
      - pi_d_a2_a8_proc_0 + pi_d_a8_a2_proc_0 - pi_d_a3_a8_proc_0
      + pi_d_a8_a3_proc_0 - pi_d_a4_a8_proc_0 - pi_d_a4_a8_proc_1
      + pi_d_a8_a4_proc_0 + pi_d_a8_a4_proc_1 - pi_d_a5_a8_proc_0
      - pi_d_a5_a8_proc_1 + pi_d_a8_a5_proc_0 + pi_d_a8_a5_proc_1
      - pi_d_a6_a8_proc_0 - pi_d_a6_a8_proc_1 + pi_d_a8_a6_proc_0
      + pi_d_a8_a6_proc_1 - pi_d_a7_a8_proc_0 - pi_d_a7_a8_proc_1
      + pi_d_a8_a7_proc_0 + pi_d_a8_a7_proc_1 + pi_d_a8_a9_proc_0
      + pi_d_a8_a9_proc_1 - pi_d_a9_a8_proc_0 - pi_d_a9_a8_proc_1
      + pi_d_a8_a10_proc_0 - pi_d_a10_a8_proc_0 + pi_d_a8_a11_proc_0
      + pi_d_a8_a11_proc_1 - pi_d_a11_a8_proc_0 - pi_d_a11_a8_proc_1
      + pi_d_a8_a12_proc_0 + pi_d_a8_a12_proc_1 - pi_d_a12_a8_proc_0
      - pi_d_a12_a8_proc_1 + pi_d_a8_a13_proc_0 + pi_d_a8_a13_proc_1
      - pi_d_a13_a8_proc_0 - pi_d_a13_a8_proc_1 + pi_d_a8_a14_proc_0
      + pi_d_a8_a14_proc_1 - pi_d_a14_a8_proc_0 - pi_d_a14_a8_proc_1 >= 0
 c24: 485 pi_p_a8_a12 + 485 pi_p_a8_a7 + 485 pi_d_a8_a0_proc_0
      + 485 pi_d_a8_a1_proc_0 + 485 pi_d_a8_a2_proc_0 + 485 pi_d_a8_a3_proc_0
      + 485 pi_d_a8_a4_proc_0 + 485 pi_d_a8_a5_proc_0 + 485 pi_d_a8_a6_proc_0
      + 485 pi_d_a8_a7_proc_0 + 485 pi_d_a8_a9_proc_0 + 485 pi_d_a8_a10_proc_0
      + 485 pi_d_a8_a11_proc_0 + 485 pi_d_a8_a12_proc_0 + 485 pi_d_a8_a13_proc_0
      + 485 pi_d_a8_a14_proc_0 + pi_y1_a8 + pi_y2_a8_proc_0 >= 0
 c25: 795 pi_p_a8_a12 + 795 pi_p_a8_a7 + 795 pi_d_a8_a0_proc_1
      + 795 pi_d_a8_a4_proc_1 + 795 pi_d_a8_a5_proc_1 + 795 pi_d_a8_a6_proc_1
      + 795 pi_d_a8_a7_proc_1 + 795 pi_d_a8_a9_proc_1 + 795 pi_d_a8_a11_proc_1
      + 795 pi_d_a8_a12_proc_1 + 795 pi_d_a8_a13_proc_1 + 795 pi_d_a8_a14_proc_1
      + pi_y1_a8 + pi_y2_a8_proc_1 >= 0
 c26: - pi_p_a1_a9 + pi_p_a9_a1 - pi_p_a14_a9 - pi_p_a13_a9 + pi_p_a9_a6
      - pi_d_a0_a9_proc_0 - pi_d_a0_a9_proc_1 + pi_d_a9_a0_proc_0
      + pi_d_a9_a0_proc_1 - pi_d_a1_a9_proc_0 + pi_d_a9_a1_proc_0
      - pi_d_a2_a9_proc_0 + pi_d_a9_a2_proc_0 - pi_d_a3_a9_proc_0
      + pi_d_a9_a3_proc_0 - pi_d_a4_a9_proc_0 - pi_d_a4_a9_proc_1
      + pi_d_a9_a4_proc_0 + pi_d_a9_a4_proc_1 - pi_d_a5_a9_proc_0
      - pi_d_a5_a9_proc_1 + pi_d_a9_a5_proc_0 + pi_d_a9_a5_proc_1
      - pi_d_a6_a9_proc_0 - pi_d_a6_a9_proc_1 + pi_d_a9_a6_proc_0
      + pi_d_a9_a6_proc_1 - pi_d_a7_a9_proc_0 - pi_d_a7_a9_proc_1
      + pi_d_a9_a7_proc_0 + pi_d_a9_a7_proc_1 - pi_d_a8_a9_proc_0
      - pi_d_a8_a9_proc_1 + pi_d_a9_a8_proc_0 + pi_d_a9_a8_proc_1
      + pi_d_a9_a10_proc_0 - pi_d_a10_a9_proc_0 + pi_d_a9_a11_proc_0
      + pi_d_a9_a11_proc_1 - pi_d_a11_a9_proc_0 - pi_d_a11_a9_proc_1
      + pi_d_a9_a12_proc_0 + pi_d_a9_a12_proc_1 - pi_d_a12_a9_proc_0
      - pi_d_a12_a9_proc_1 + pi_d_a9_a13_proc_0 + pi_d_a9_a13_proc_1
      - pi_d_a13_a9_proc_0 - pi_d_a13_a9_proc_1 + pi_d_a9_a14_proc_0
      + pi_d_a9_a14_proc_1 - pi_d_a14_a9_proc_0 - pi_d_a14_a9_proc_1 >= 0
 c27: 1240 pi_p_a9_a1 + 1240 pi_p_a9_a6 + 1240 pi_d_a9_a0_proc_0
      + 1240 pi_d_a9_a1_proc_0 + 1240 pi_d_a9_a2_proc_0 + 1240 pi_d_a9_a3_proc_0
      + 1240 pi_d_a9_a4_proc_0 + 1240 pi_d_a9_a5_proc_0 + 1240 pi_d_a9_a6_proc_0
      + 1240 pi_d_a9_a7_proc_0 + 1240 pi_d_a9_a8_proc_0
      + 1240 pi_d_a9_a10_proc_0 + 1240 pi_d_a9_a11_proc_0
      + 1240 pi_d_a9_a12_proc_0 + 1240 pi_d_a9_a13_proc_0
      + 1240 pi_d_a9_a14_proc_0 + pi_y1_a9 + pi_y2_a9_proc_0 >= 0
 c28: 648 pi_p_a9_a1 + 648 pi_p_a9_a6 + 648 pi_d_a9_a0_proc_1
      + 648 pi_d_a9_a4_proc_1 + 648 pi_d_a9_a5_proc_1 + 648 pi_d_a9_a6_proc_1
      + 648 pi_d_a9_a7_proc_1 + 648 pi_d_a9_a8_proc_1 + 648 pi_d_a9_a11_proc_1
      + 648 pi_d_a9_a12_proc_1 + 648 pi_d_a9_a13_proc_1 + 648 pi_d_a9_a14_proc_1
      + pi_y1_a9 + pi_y2_a9_proc_1 >= 0
 c29: pi_p_a10_a7 + pi_p_a10_a11 - pi_p_a0_a10 - pi_p_a2_a10 - pi_p_a5_a10
      + pi_p_a10_a6 - pi_d_a0_a10_proc_0 + pi_d_a10_a0_proc_0
      - pi_d_a1_a10_proc_0 + pi_d_a10_a1_proc_0 - pi_d_a2_a10_proc_0
      + pi_d_a10_a2_proc_0 - pi_d_a3_a10_proc_0 + pi_d_a10_a3_proc_0
      - pi_d_a4_a10_proc_0 + pi_d_a10_a4_proc_0 - pi_d_a5_a10_proc_0
      + pi_d_a10_a5_proc_0 - pi_d_a6_a10_proc_0 + pi_d_a10_a6_proc_0
      - pi_d_a7_a10_proc_0 + pi_d_a10_a7_proc_0 - pi_d_a8_a10_proc_0
      + pi_d_a10_a8_proc_0 - pi_d_a9_a10_proc_0 + pi_d_a10_a9_proc_0
      + pi_d_a10_a11_proc_0 - pi_d_a11_a10_proc_0 + pi_d_a10_a12_proc_0
      - pi_d_a12_a10_proc_0 + pi_d_a10_a13_proc_0 - pi_d_a13_a10_proc_0
      + pi_d_a10_a14_proc_0 - pi_d_a14_a10_proc_0 >= 0
 c30: 1160 pi_p_a10_a7 + 1160 pi_p_a10_a11 + 1160 pi_p_a10_a6
      + 1160 pi_d_a10_a0_proc_0 + 1160 pi_d_a10_a1_proc_0
      + 1160 pi_d_a10_a2_proc_0 + 1160 pi_d_a10_a3_proc_0
      + 1160 pi_d_a10_a4_proc_0 + 1160 pi_d_a10_a5_proc_0
      + 1160 pi_d_a10_a6_proc_0 + 1160 pi_d_a10_a7_proc_0
      + 1160 pi_d_a10_a8_proc_0 + 1160 pi_d_a10_a9_proc_0
      + 1160 pi_d_a10_a11_proc_0 + 1160 pi_d_a10_a12_proc_0
      + 1160 pi_d_a10_a13_proc_0 + 1160 pi_d_a10_a14_proc_0 + pi_y1_a10
      + pi_y2_a10_proc_0 >= 0
 c31: - pi_p_a10_a11 - pi_p_a5_a11 + pi_p_a11_a13 - pi_d_a0_a11_proc_0
      - pi_d_a0_a11_proc_1 + pi_d_a11_a0_proc_0 + pi_d_a11_a0_proc_1
      - pi_d_a1_a11_proc_0 + pi_d_a11_a1_proc_0 - pi_d_a2_a11_proc_0
      + pi_d_a11_a2_proc_0 - pi_d_a3_a11_proc_0 + pi_d_a11_a3_proc_0
      - pi_d_a4_a11_proc_0 - pi_d_a4_a11_proc_1 + pi_d_a11_a4_proc_0
      + pi_d_a11_a4_proc_1 - pi_d_a5_a11_proc_0 - pi_d_a5_a11_proc_1
      + pi_d_a11_a5_proc_0 + pi_d_a11_a5_proc_1 - pi_d_a6_a11_proc_0
      - pi_d_a6_a11_proc_1 + pi_d_a11_a6_proc_0 + pi_d_a11_a6_proc_1
      - pi_d_a7_a11_proc_0 - pi_d_a7_a11_proc_1 + pi_d_a11_a7_proc_0
      + pi_d_a11_a7_proc_1 - pi_d_a8_a11_proc_0 - pi_d_a8_a11_proc_1
      + pi_d_a11_a8_proc_0 + pi_d_a11_a8_proc_1 - pi_d_a9_a11_proc_0
      - pi_d_a9_a11_proc_1 + pi_d_a11_a9_proc_0 + pi_d_a11_a9_proc_1
      - pi_d_a10_a11_proc_0 + pi_d_a11_a10_proc_0 + pi_d_a11_a12_proc_0
      + pi_d_a11_a12_proc_1 - pi_d_a12_a11_proc_0 - pi_d_a12_a11_proc_1
      + pi_d_a11_a13_proc_0 + pi_d_a11_a13_proc_1 - pi_d_a13_a11_proc_0
      - pi_d_a13_a11_proc_1 + pi_d_a11_a14_proc_0 + pi_d_a11_a14_proc_1
      - pi_d_a14_a11_proc_0 - pi_d_a14_a11_proc_1 >= 0
 c32: 766 pi_p_a11_a13 + 766 pi_d_a11_a0_proc_0 + 766 pi_d_a11_a1_proc_0
      + 766 pi_d_a11_a2_proc_0 + 766 pi_d_a11_a3_proc_0 + 766 pi_d_a11_a4_proc_0
      + 766 pi_d_a11_a5_proc_0 + 766 pi_d_a11_a6_proc_0 + 766 pi_d_a11_a7_proc_0
      + 766 pi_d_a11_a8_proc_0 + 766 pi_d_a11_a9_proc_0
      + 766 pi_d_a11_a10_proc_0 + 766 pi_d_a11_a12_proc_0
      + 766 pi_d_a11_a13_proc_0 + 766 pi_d_a11_a14_proc_0 + pi_y1_a11
      + pi_y2_a11_proc_0 >= 0
 c33: 695 pi_p_a11_a13 + 695 pi_d_a11_a0_proc_1 + 695 pi_d_a11_a4_proc_1
      + 695 pi_d_a11_a5_proc_1 + 695 pi_d_a11_a6_proc_1 + 695 pi_d_a11_a7_proc_1
      + 695 pi_d_a11_a8_proc_1 + 695 pi_d_a11_a9_proc_1
      + 695 pi_d_a11_a12_proc_1 + 695 pi_d_a11_a13_proc_1
      + 695 pi_d_a11_a14_proc_1 + pi_y1_a11 + pi_y2_a11_proc_1 >= 0
 c34: - pi_p_a8_a12 + pi_p_a12_a13 - pi_p_a2_a12 - pi_p_a6_a12
      - pi_d_a0_a12_proc_0 - pi_d_a0_a12_proc_1 + pi_d_a12_a0_proc_0
      + pi_d_a12_a0_proc_1 - pi_d_a1_a12_proc_0 + pi_d_a12_a1_proc_0
      - pi_d_a2_a12_proc_0 + pi_d_a12_a2_proc_0 - pi_d_a3_a12_proc_0
      + pi_d_a12_a3_proc_0 - pi_d_a4_a12_proc_0 - pi_d_a4_a12_proc_1
      + pi_d_a12_a4_proc_0 + pi_d_a12_a4_proc_1 - pi_d_a5_a12_proc_0
      - pi_d_a5_a12_proc_1 + pi_d_a12_a5_proc_0 + pi_d_a12_a5_proc_1
      - pi_d_a6_a12_proc_0 - pi_d_a6_a12_proc_1 + pi_d_a12_a6_proc_0
      + pi_d_a12_a6_proc_1 - pi_d_a7_a12_proc_0 - pi_d_a7_a12_proc_1
      + pi_d_a12_a7_proc_0 + pi_d_a12_a7_proc_1 - pi_d_a8_a12_proc_0
      - pi_d_a8_a12_proc_1 + pi_d_a12_a8_proc_0 + pi_d_a12_a8_proc_1
      - pi_d_a9_a12_proc_0 - pi_d_a9_a12_proc_1 + pi_d_a12_a9_proc_0
      + pi_d_a12_a9_proc_1 - pi_d_a10_a12_proc_0 + pi_d_a12_a10_proc_0
      - pi_d_a11_a12_proc_0 - pi_d_a11_a12_proc_1 + pi_d_a12_a11_proc_0
      + pi_d_a12_a11_proc_1 + pi_d_a12_a13_proc_0 + pi_d_a12_a13_proc_1
      - pi_d_a13_a12_proc_0 - pi_d_a13_a12_proc_1 + pi_d_a12_a14_proc_0
      + pi_d_a12_a14_proc_1 - pi_d_a14_a12_proc_0 - pi_d_a14_a12_proc_1 >= 0
 c35: 1203 pi_p_a12_a13 + 1203 pi_d_a12_a0_proc_0 + 1203 pi_d_a12_a1_proc_0
      + 1203 pi_d_a12_a2_proc_0 + 1203 pi_d_a12_a3_proc_0
      + 1203 pi_d_a12_a4_proc_0 + 1203 pi_d_a12_a5_proc_0
      + 1203 pi_d_a12_a6_proc_0 + 1203 pi_d_a12_a7_proc_0
      + 1203 pi_d_a12_a8_proc_0 + 1203 pi_d_a12_a9_proc_0
      + 1203 pi_d_a12_a10_proc_0 + 1203 pi_d_a12_a11_proc_0
      + 1203 pi_d_a12_a13_proc_0 + 1203 pi_d_a12_a14_proc_0 + pi_y1_a12
      + pi_y2_a12_proc_0 >= 0
 c36: 774 pi_p_a12_a13 + 774 pi_d_a12_a0_proc_1 + 774 pi_d_a12_a4_proc_1
      + 774 pi_d_a12_a5_proc_1 + 774 pi_d_a12_a6_proc_1 + 774 pi_d_a12_a7_proc_1
      + 774 pi_d_a12_a8_proc_1 + 774 pi_d_a12_a9_proc_1
      + 774 pi_d_a12_a11_proc_1 + 774 pi_d_a12_a13_proc_1
      + 774 pi_d_a12_a14_proc_1 + pi_y1_a12 + pi_y2_a12_proc_1 >= 0
 c37: - pi_p_a12_a13 + pi_p_a13_a14 - pi_p_a11_a13 + pi_p_a13_a9
      - pi_d_a0_a13_proc_0 - pi_d_a0_a13_proc_1 + pi_d_a13_a0_proc_0
      + pi_d_a13_a0_proc_1 - pi_d_a1_a13_proc_0 + pi_d_a13_a1_proc_0
      - pi_d_a2_a13_proc_0 + pi_d_a13_a2_proc_0 - pi_d_a3_a13_proc_0
      + pi_d_a13_a3_proc_0 - pi_d_a4_a13_proc_0 - pi_d_a4_a13_proc_1
      + pi_d_a13_a4_proc_0 + pi_d_a13_a4_proc_1 - pi_d_a5_a13_proc_0
      - pi_d_a5_a13_proc_1 + pi_d_a13_a5_proc_0 + pi_d_a13_a5_proc_1
      - pi_d_a6_a13_proc_0 - pi_d_a6_a13_proc_1 + pi_d_a13_a6_proc_0
      + pi_d_a13_a6_proc_1 - pi_d_a7_a13_proc_0 - pi_d_a7_a13_proc_1
      + pi_d_a13_a7_proc_0 + pi_d_a13_a7_proc_1 - pi_d_a8_a13_proc_0
      - pi_d_a8_a13_proc_1 + pi_d_a13_a8_proc_0 + pi_d_a13_a8_proc_1
      - pi_d_a9_a13_proc_0 - pi_d_a9_a13_proc_1 + pi_d_a13_a9_proc_0
      + pi_d_a13_a9_proc_1 - pi_d_a10_a13_proc_0 + pi_d_a13_a10_proc_0
      - pi_d_a11_a13_proc_0 - pi_d_a11_a13_proc_1 + pi_d_a13_a11_proc_0
      + pi_d_a13_a11_proc_1 - pi_d_a12_a13_proc_0 - pi_d_a12_a13_proc_1
      + pi_d_a13_a12_proc_0 + pi_d_a13_a12_proc_1 + pi_d_a13_a14_proc_0
      + pi_d_a13_a14_proc_1 - pi_d_a14_a13_proc_0 - pi_d_a14_a13_proc_1 >= 0
 c38: 1126 pi_p_a13_a14 + 1126 pi_p_a13_a9 + 1126 pi_d_a13_a0_proc_0
      + 1126 pi_d_a13_a1_proc_0 + 1126 pi_d_a13_a2_proc_0
      + 1126 pi_d_a13_a3_proc_0 + 1126 pi_d_a13_a4_proc_0
      + 1126 pi_d_a13_a5_proc_0 + 1126 pi_d_a13_a6_proc_0
      + 1126 pi_d_a13_a7_proc_0 + 1126 pi_d_a13_a8_proc_0
      + 1126 pi_d_a13_a9_proc_0 + 1126 pi_d_a13_a10_proc_0
      + 1126 pi_d_a13_a11_proc_0 + 1126 pi_d_a13_a12_proc_0
      + 1126 pi_d_a13_a14_proc_0 + pi_y1_a13 + pi_y2_a13_proc_0 >= 0
 c39: 1005 pi_p_a13_a14 + 1005 pi_p_a13_a9 + 1005 pi_d_a13_a0_proc_1
      + 1005 pi_d_a13_a4_proc_1 + 1005 pi_d_a13_a5_proc_1
      + 1005 pi_d_a13_a6_proc_1 + 1005 pi_d_a13_a7_proc_1
      + 1005 pi_d_a13_a8_proc_1 + 1005 pi_d_a13_a9_proc_1
      + 1005 pi_d_a13_a11_proc_1 + 1005 pi_d_a13_a12_proc_1
      + 1005 pi_d_a13_a14_proc_1 + pi_y1_a13 + pi_y2_a13_proc_1 >= 0
 c40: - pi_p_a13_a14 + pi_p_a14_a9 + pi_p_a14_a7 - pi_d_a0_a14_proc_0
      - pi_d_a0_a14_proc_1 + pi_d_a14_a0_proc_0 + pi_d_a14_a0_proc_1
      - pi_d_a1_a14_proc_0 + pi_d_a14_a1_proc_0 - pi_d_a2_a14_proc_0
      + pi_d_a14_a2_proc_0 - pi_d_a3_a14_proc_0 + pi_d_a14_a3_proc_0
      - pi_d_a4_a14_proc_0 - pi_d_a4_a14_proc_1 + pi_d_a14_a4_proc_0
      + pi_d_a14_a4_proc_1 - pi_d_a5_a14_proc_0 - pi_d_a5_a14_proc_1
      + pi_d_a14_a5_proc_0 + pi_d_a14_a5_proc_1 - pi_d_a6_a14_proc_0
      - pi_d_a6_a14_proc_1 + pi_d_a14_a6_proc_0 + pi_d_a14_a6_proc_1
      - pi_d_a7_a14_proc_0 - pi_d_a7_a14_proc_1 + pi_d_a14_a7_proc_0
      + pi_d_a14_a7_proc_1 - pi_d_a8_a14_proc_0 - pi_d_a8_a14_proc_1
      + pi_d_a14_a8_proc_0 + pi_d_a14_a8_proc_1 - pi_d_a9_a14_proc_0
      - pi_d_a9_a14_proc_1 + pi_d_a14_a9_proc_0 + pi_d_a14_a9_proc_1
      - pi_d_a10_a14_proc_0 + pi_d_a14_a10_proc_0 - pi_d_a11_a14_proc_0
      - pi_d_a11_a14_proc_1 + pi_d_a14_a11_proc_0 + pi_d_a14_a11_proc_1
      - pi_d_a12_a14_proc_0 - pi_d_a12_a14_proc_1 + pi_d_a14_a12_proc_0
      + pi_d_a14_a12_proc_1 - pi_d_a13_a14_proc_0 - pi_d_a13_a14_proc_1
      + pi_d_a14_a13_proc_0 + pi_d_a14_a13_proc_1 >= 0
 c41: 762 pi_p_a14_a9 + 762 pi_p_a14_a7 + 762 pi_d_a14_a0_proc_0
      + 762 pi_d_a14_a1_proc_0 + 762 pi_d_a14_a2_proc_0 + 762 pi_d_a14_a3_proc_0
      + 762 pi_d_a14_a4_proc_0 + 762 pi_d_a14_a5_proc_0 + 762 pi_d_a14_a6_proc_0
      + 762 pi_d_a14_a7_proc_0 + 762 pi_d_a14_a8_proc_0 + 762 pi_d_a14_a9_proc_0
      + 762 pi_d_a14_a10_proc_0 + 762 pi_d_a14_a11_proc_0
      + 762 pi_d_a14_a12_proc_0 + 762 pi_d_a14_a13_proc_0 + pi_y1_a14
      + pi_y2_a14_proc_0 >= 0
 c42: 1021 pi_p_a14_a9 + 1021 pi_p_a14_a7 + 1021 pi_d_a14_a0_proc_1
      + 1021 pi_d_a14_a4_proc_1 + 1021 pi_d_a14_a5_proc_1
      + 1021 pi_d_a14_a6_proc_1 + 1021 pi_d_a14_a7_proc_1
      + 1021 pi_d_a14_a8_proc_1 + 1021 pi_d_a14_a9_proc_1
      + 1021 pi_d_a14_a11_proc_1 + 1021 pi_d_a14_a12_proc_1
      + 1021 pi_d_a14_a13_proc_1 + pi_y1_a14 + pi_y2_a14_proc_1 >= 0

Bounds
       pi_y1_a0 Free
       pi_y1_a1 Free
       pi_y1_a2 Free
       pi_y1_a3 Free
       pi_y1_a4 Free
       pi_y1_a5 Free
       pi_y1_a6 Free
       pi_y1_a7 Free
       pi_y1_a8 Free
       pi_y1_a9 Free
       pi_y1_a10 Free
       pi_y1_a11 Free
       pi_y1_a12 Free
       pi_y1_a13 Free
       pi_y1_a14 Free
End
